proyfinal/src/viki/013/andrea/andrea-localstore/experimentInOfficeAgust.take6/worker_2/05a917cb-3dca-42e7-9f70-133d66ee38da.als.cnf.out
Reading from standard input... Use '--help' for help.
============================[ Problem Statistics ]=============================
|                                                                             |
|  Number of variables:         87638                                         |
|  Number of clauses:          161767                                         |
|  Parse time:                   0.04 s                                       |
|                                                                             |
============================[ Search Statistics ]==============================
| Conflicts |          ORIGINAL         |          LEARNT          | Progress |
|           |    Vars  Clauses Literals |    Limit  Clauses Lit/Cl |          |
===============================================================================
|       100 |   63952   110775   276724 |    40617      100     37 | 27.027 % |
|       250 |   55337    85043   213444 |    44679      247     36 | 36.857 % |
|       475 |   55337    85043   213444 |    49147      472    153 | 36.857 % |
|       812 |   55292    84900   213066 |    54061      807     98 | 36.909 % |
|      1318 |   55241    84818   212826 |    59468     1311     76 | 36.967 % |
|      2077 |   55241    84729   212621 |    65414     2070     76 | 36.967 % |
|      3216 |   55116    84702   212567 |    71956     3203     66 | 37.109 % |
|      4924 |   55025    83907   210658 |    79152     4870     61 | 37.213 % |
|      7486 |   54531    82438   206989 |    87067     7236     61 | 37.777 % |
|     11330 |   54363    81541   204886 |    95773    11047     63 | 37.969 % |
|     17096 |   54274    81151   203957 |   105351    16799     70 | 38.070 % |
===============================================================================
restarts              : 91
conflicts             : 24461          (7178 /sec)
decisions             : 81712          (0.00 % random) (23978 /sec)
propagations          : 35288299       (10355295 /sec)
conflict literals     : 1588025        (47.68 % deleted)
Memory used           : 35.44 MB
CPU time              : 3.40775 s

INDETERMINATE
